SYSTEM = <system>_static
ENCUT  = 520
EDIFF  = 1E-7
ISMEAR = -5
SIGMA  = 0.05
IBRION = -1
NSW    = 0
PREC   = Accurate
LREAL  = .FALSE.
LASPH  = .TRUE.
LWAVE  = .FALSE.
LCHARG = .TRUE.

# NOTE:
# - Use a converged structure from relaxation.
# - Keep functional/pseudopotentials identical to relax run.
